NAME : mEgtspf.pid31602.gtsp.158061377.tour
COMMENT : Length = 158061377
COMMENT : Found by LKH [Keld Helsgaun] Fri Mar  7 02:57:10 2025
TYPE : TOUR
DIMENSION : 90
TOUR_SECTION
1
36
37
38
35
10
69
70
67
68
23
24
25
26
28
29
30
27
87
88
89
90
17
18
15
16
49
50
47
48
2
46
43
44
45
4
9
65
66
63
64
32
33
34
31
72
73
74
71
82
79
80
81
6
55
56
57
58
75
76
77
78
51
52
53
54
60
61
62
59
40
41
42
39
11
12
13
14
8
5
20
21
22
19
7
3
83
84
85
86
-1
EOF
